[runlim] version:		1.10
[runlim] time limit:		311040000 seconds
[runlim] real time limit:	600 seconds
[runlim] space limit:		14000 MB
[runlim] argv[0]:		python3
[runlim] argv[1]:		-u
[runlim] argv[2]:		mip.py
[runlim] argv[3]:		graph09
[runlim] start:			Tue Jan 20 19:46:37 2026
[runlim] main pid:		200727
Building MIP model...
[runlim] sample:		10.0 time, 10.7 real, 38.2 MB
[runlim] sample:		20.0 time, 20.7 real, 39.8 MB
[runlim] sample:		30.0 time, 30.7 real, 41.3 MB
[runlim] sample:		40.0 time, 40.7 real, 44.2 MB
[runlim] sample:		50.0 time, 50.7 real, 45.1 MB
[runlim] sample:		60.0 time, 60.7 real, 45.9 MB
[runlim] sample:		70.0 time, 70.7 real, 46.4 MB
[runlim] sample:		80.0 time, 80.7 real, 47.9 MB
[runlim] sample:		89.9 time, 90.7 real, 48.3 MB
[runlim] sample:		99.9 time, 100.7 real, 50.0 MB
[runlim] sample:		109.9 time, 110.7 real, 50.5 MB
[runlim] sample:		119.9 time, 120.7 real, 50.7 MB
[runlim] sample:		129.9 time, 130.7 real, 52.7 MB
[runlim] sample:		139.9 time, 140.7 real, 53.2 MB
[runlim] sample:		149.9 time, 150.7 real, 53.4 MB
[runlim] sample:		159.9 time, 160.7 real, 53.7 MB
[runlim] sample:		169.9 time, 170.7 real, 56.0 MB
[runlim] sample:		179.9 time, 180.7 real, 56.4 MB
[runlim] sample:		189.9 time, 190.7 real, 56.8 MB
[runlim] sample:		199.9 time, 200.7 real, 56.9 MB
[runlim] sample:		209.9 time, 210.7 real, 57.2 MB
[runlim] sample:		219.9 time, 220.7 real, 60.0 MB
[runlim] sample:		229.9 time, 230.7 real, 60.5 MB
[runlim] sample:		239.8 time, 240.7 real, 60.9 MB
[runlim] sample:		249.8 time, 250.7 real, 61.0 MB
[runlim] sample:		259.8 time, 260.7 real, 61.2 MB
[runlim] sample:		269.8 time, 270.7 real, 63.7 MB
[runlim] sample:		279.8 time, 280.7 real, 63.9 MB
Build time: 282.67s
Solving MIP (minimizing number of labels)...
Version identifier: 22.1.1.0 | 2022-11-28 | 9160aff4d
CPXPARAM_Read_DataCheck                          1
Legacy callback                                  i
Tried aggregator 2 times.
MIP Presolve eliminated 557728 rows and 0 columns.
MIP Presolve modified 58595 coefficients.
Aggregator did 18046 substitutions.
Reduced MIP has 59057 rows, 18094 columns, and 558817 nonzeros.
Reduced MIP has 18094 binaries, 0 generals, 0 SOSs, and 0 indicators.
Presolve time = 2.90 sec. (2548.44 ticks)
Probing time = 0.03 sec. (6.77 ticks)
Tried aggregator 1 time.
Detecting symmetries...
MIP Presolve eliminated 2 rows and 0 columns.
Reduced MIP has 59055 rows, 18092 columns, and 558811 nonzeros.
Reduced MIP has 18092 binaries, 0 generals, 0 SOSs, and 0 indicators.
Presolve time = 0.78 sec. (665.32 ticks)
Probing time = 0.03 sec. (6.75 ticks)
Clique table members: 59056.
MIP emphasis: balance optimality and feasibility.
MIP search method: dynamic search.
Parallel mode: deterministic, using up to 12 threads.
[runlim] sample:		303.2 time, 290.7 real, 691.7 MB
[runlim] sample:		344.6 time, 300.7 real, 741.1 MB
[runlim] sample:		426.9 time, 310.7 real, 1888.7 MB
[runlim] sample:		526.5 time, 320.7 real, 1923.7 MB
[runlim] sample:		625.1 time, 330.7 real, 1923.8 MB
[runlim] sample:		724.4 time, 340.7 real, 1923.8 MB
Root relaxation solution time = 57.37 sec. (13956.89 ticks)

        Nodes                                         Cuts/
   Node  Left     Objective  IInf  Best Integer    Best Bound    ItCnt     Gap

*     0+    0                           28.0000        0.0000           100.00%
      0     0       18.0000   889       28.0000       18.0000    37719   35.71%

========== NEW INCUMBENT SOLUTION ==========
{1: 16, 2: 254, 3: 16, 4: 254, 5: 394, 6: 156, 7: 254, 8: 16, 9: 156, 10: 394, 11: 526, 12: 764, 13: 680, 14: 442, 15: 16, 16: 254, 17: 526, 18: 764, 19: 554, 20: 792, 21: 114, 22: 352, 23: 296, 24: 58, 25: 86, 26: 324, 27: 156, 28: 394, 29: 792, 30: 554, 31: 156, 32: 394, 33: 498, 34: 736, 35: 736, 36: 498, 37: 156, 38: 394, 39: 114, 40: 352, 41: 778, 42: 540, 43: 86, 44: 324, 45: 44, 46: 282, 47: 442, 48: 680, 49: 764, 50: 526, 51: 736, 52: 498, 53: 470, 54: 708, 55: 792, 56: 554, 57: 778, 58: 540, 59: 778, 60: 540, 61: 16, 62: 254, 63: 114, 64: 352, 65: 736, 66: 498, 67: 708, 68: 470, 69: 736, 70: 498, 71: 470, 72: 708, 73: 708, 74: 470, 75: 736, 76: 498, 77: 526, 78: 764, 79: 142, 80: 380, 81: 442, 82: 680, 83: 394, 84: 156, 85: 470, 86: 708, 87: 736, 88: 498, 89: 470, 90: 708, 91: 442, 92: 680, 93: 778, 94: 540, 95: 526, 96: 764, 97: 540, 98: 778, 99: 114, 100: 352, 101: 498, 102: 736, 103: 554, 104: 792, 105: 72, 106: 310, 107: 156, 108: 394, 109: 554, 110: 792, 111: 380, 112: 142, 113: 156, 114: 394, 115: 156, 116: 394, 117: 16, 118: 254, 119: 156, 120: 394, 121: 540, 122: 778, 123: 394, 124: 156, 125: 470, 126: 708, 127: 764, 128: 526, 129: 498, 130: 736, 131: 470, 132: 708, 133: 680, 134: 442, 135: 540, 136: 778, 137: 708, 138: 470, 139: 764, 140: 526, 141: 44, 142: 282, 143: 352, 144: 114, 145: 680, 146: 442, 147: 708, 148: 470, 149: 736, 150: 498, 151: 470, 152: 708, 153: 156, 154: 394, 155: 554, 156: 792, 157: 86, 158: 324, 159: 526, 160: 764, 161: 778, 162: 540, 163: 736, 164: 498, 165: 554, 166: 792, 167: 736, 168: 498, 169: 114, 170: 352, 171: 142, 172: 380, 173: 540, 174: 778, 175: 736, 176: 498, 177: 72, 178: 310, 179: 708, 180: 470, 181: 554, 182: 792, 183: 778, 184: 540, 185: 792, 186: 554, 187: 498, 188: 736, 189: 778, 190: 540, 191: 86, 192: 324, 193: 142, 194: 380, 195: 736, 196: 498, 197: 498, 198: 736, 199: 324, 200: 86, 201: 114, 202: 352, 203: 708, 204: 470, 205: 498, 206: 736, 207: 16, 208: 254, 209: 498, 210: 736, 211: 142, 212: 380, 213: 792, 214: 554, 215: 498, 216: 736, 217: 778, 218: 540, 219: 708, 220: 470, 221: 778, 222: 540, 223: 764, 224: 526, 225: 554, 226: 792, 227: 540, 228: 778, 229: 792, 230: 554, 231: 540, 232: 778, 233: 554, 234: 792, 235: 778, 236: 540, 237: 498, 238: 736, 239: 778, 240: 540, 241: 708, 242: 470, 243: 764, 244: 526, 245: 736, 246: 498, 247: 764, 248: 526, 249: 470, 250: 708, 251: 498, 252: 736, 253: 554, 254: 792, 255: 470, 256: 708, 257: 156, 258: 394, 259: 540, 260: 778, 261: 554, 262: 792, 263: 540, 264: 778, 265: 554, 266: 792, 267: 498, 268: 736, 269: 470, 270: 708, 271: 540, 272: 778, 273: 736, 274: 498, 275: 442, 276: 680, 277: 442, 278: 680, 279: 156, 280: 394, 281: 470, 282: 708, 283: 708, 284: 470, 285: 778, 286: 540, 287: 792, 288: 554, 289: 254, 290: 16, 291: 736, 292: 498, 293: 470, 294: 708, 295: 470, 296: 708, 297: 470, 298: 708, 299: 708, 300: 470, 301: 498, 302: 736, 303: 778, 304: 540, 305: 540, 306: 778, 307: 470, 308: 708, 309: 554, 310: 792, 311: 736, 312: 498, 313: 540, 314: 778, 315: 442, 316: 680, 317: 554, 318: 792, 319: 736, 320: 498, 321: 554, 322: 792, 323: 254, 324: 16, 325: 310, 326: 72, 327: 352, 328: 114, 329: 540, 330: 778, 331: 792, 332: 554, 333: 86, 334: 324, 335: 554, 336: 792, 337: 554, 338: 792, 339: 470, 340: 708, 341: 114, 342: 352, 343: 16, 344: 254, 345: 352, 346: 114, 347: 708, 348: 470, 349: 680, 350: 442, 351: 310, 352: 72, 353: 156, 354: 394, 355: 526, 356: 764, 357: 554, 358: 792, 359: 736, 360: 498, 361: 156, 362: 394, 363: 352, 364: 114, 365: 498, 366: 736, 367: 442, 368: 680, 369: 442, 370: 680, 371: 470, 372: 708, 373: 142, 374: 380, 375: 156, 376: 394, 377: 764, 378: 526, 379: 352, 380: 114, 381: 470, 382: 708, 383: 442, 384: 680, 385: 708, 386: 470, 387: 498, 388: 736, 389: 394, 390: 156, 391: 470, 392: 708, 393: 792, 394: 554, 395: 526, 396: 764, 397: 156, 398: 394, 399: 554, 400: 792, 401: 554, 402: 792, 403: 498, 404: 736, 405: 380, 406: 142, 407: 736, 408: 498, 409: 72, 410: 310, 411: 442, 412: 680, 413: 708, 414: 470, 415: 792, 416: 554, 417: 114, 418: 352, 419: 764, 420: 526, 421: 58, 422: 296, 423: 554, 424: 792, 425: 526, 426: 764, 427: 142, 428: 380, 429: 554, 430: 792, 431: 554, 432: 792, 433: 58, 434: 296, 435: 554, 436: 792, 437: 554, 438: 792, 439: 470, 440: 708, 441: 540, 442: 778, 443: 792, 444: 554, 445: 680, 446: 442, 447: 156, 448: 394, 449: 708, 450: 470, 451: 470, 452: 708, 453: 442, 454: 680, 455: 554, 456: 792, 457: 470, 458: 708, 459: 526, 460: 764, 461: 526, 462: 764, 463: 764, 464: 526, 465: 470, 466: 708, 467: 764, 468: 526, 469: 792, 470: 554, 471: 142, 472: 380, 473: 680, 474: 442, 475: 764, 476: 526, 477: 470, 478: 708, 479: 526, 480: 764, 481: 708, 482: 470, 483: 792, 484: 554, 485: 792, 486: 554, 487: 526, 488: 764, 489: 470, 490: 708, 491: 470, 492: 708, 493: 792, 494: 554, 495: 470, 496: 708, 497: 394, 498: 156, 499: 44, 500: 282, 501: 708, 502: 470, 503: 470, 504: 708, 505: 708, 506: 470, 507: 708, 508: 470, 509: 554, 510: 792, 511: 470, 512: 708, 513: 708, 514: 470, 515: 470, 516: 708, 517: 554, 518: 792, 519: 526, 520: 764, 521: 792, 522: 554, 523: 792, 524: 554, 525: 470, 526: 708, 527: 470, 528: 708, 529: 708, 530: 470, 531: 470, 532: 708, 533: 554, 534: 792, 535: 554, 536: 792, 537: 442, 538: 680, 539: 470, 540: 708, 541: 72, 542: 310, 543: 526, 544: 764, 545: 792, 546: 554, 547: 142, 548: 380, 549: 736, 550: 498, 551: 554, 552: 792, 553: 296, 554: 58, 555: 554, 556: 792, 557: 58, 558: 296, 559: 282, 560: 44, 561: 526, 562: 764, 563: 470, 564: 708, 565: 554, 566: 792, 567: 58, 568: 296, 569: 442, 570: 680, 571: 156, 572: 394, 573: 526, 574: 764, 575: 142, 576: 380, 577: 156, 578: 394, 579: 142, 580: 380, 581: 16, 582: 254, 583: 554, 584: 792, 585: 442, 586: 680, 587: 554, 588: 792, 589: 792, 590: 554, 591: 442, 592: 680, 593: 58, 594: 296, 595: 44, 596: 282, 597: 736, 598: 498, 599: 792, 600: 554, 601: 526, 602: 764, 603: 554, 604: 792, 605: 394, 606: 156, 607: 442, 608: 680, 609: 554, 610: 792, 611: 764, 612: 526, 613: 792, 614: 554, 615: 282, 616: 44, 617: 526, 618: 764, 619: 792, 620: 554, 621: 554, 622: 792, 623: 142, 624: 380, 625: 526, 626: 764, 627: 554, 628: 792, 629: 764, 630: 526, 631: 296, 632: 58, 633: 554, 634: 792, 635: 554, 636: 792, 637: 526, 638: 764, 639: 526, 640: 764, 641: 394, 642: 156, 643: 680, 644: 442, 645: 764, 646: 526, 647: 16, 648: 254, 649: 680, 650: 442, 651: 526, 652: 764, 653: 142, 654: 380, 655: 792, 656: 554, 657: 58, 658: 296, 659: 394, 660: 156, 661: 680, 662: 442, 663: 394, 664: 156, 665: 442, 666: 680, 667: 680, 668: 442, 669: 764, 670: 526, 671: 142, 672: 380, 673: 442, 674: 680, 675: 526, 676: 764, 677: 680, 678: 442, 679: 680, 680: 442, 681: 156, 682: 394, 683: 282, 684: 44, 685: 142, 686: 380, 687: 442, 688: 680, 689: 380, 690: 142, 691: 526, 692: 764, 693: 394, 694: 156, 695: 394, 696: 156, 697: 254, 698: 16, 699: 442, 700: 680, 701: 142, 702: 380, 703: 44, 704: 282, 705: 142, 706: 380, 707: 142, 708: 380, 709: 156, 710: 394, 711: 764, 712: 526, 713: 442, 714: 680, 715: 282, 716: 44, 717: 442, 718: 680, 719: 156, 720: 394, 721: 16, 722: 254, 723: 680, 724: 442, 725: 442, 726: 680, 727: 680, 728: 442, 729: 142, 730: 380, 731: 764, 732: 526, 733: 156, 734: 394, 735: 442, 736: 680, 737: 394, 738: 156, 739: 142, 740: 380, 741: 442, 742: 680, 743: 16, 744: 254, 745: 296, 746: 58, 747: 58, 748: 296, 749: 44, 750: 282, 751: 156, 752: 394, 753: 764, 754: 526, 755: 680, 756: 442, 757: 764, 758: 526, 759: 764, 760: 526, 761: 680, 762: 442, 763: 526, 764: 764, 765: 142, 766: 380, 767: 470, 768: 708, 769: 526, 770: 764, 771: 380, 772: 142, 773: 540, 774: 778, 775: 680, 776: 442, 777: 680, 778: 442, 779: 142, 780: 380, 781: 380, 782: 142, 783: 680, 784: 442, 785: 282, 786: 44, 787: 442, 788: 680, 789: 680, 790: 442, 791: 44, 792: 282, 793: 526, 794: 764, 795: 526, 796: 764, 797: 680, 798: 442, 799: 792, 800: 554, 801: 680, 802: 442, 803: 156, 804: 394, 805: 526, 806: 764, 807: 156, 808: 394, 809: 442, 810: 680, 811: 442, 812: 680, 813: 442, 814: 680, 815: 442, 816: 680, 817: 526, 818: 764, 819: 526, 820: 764, 821: 442, 822: 680, 823: 442, 824: 680, 825: 526, 826: 764, 827: 442, 828: 680, 829: 764, 830: 526, 831: 526, 832: 764, 833: 764, 834: 526, 835: 380, 836: 142, 837: 442, 838: 680, 839: 680, 840: 442, 841: 526, 842: 764, 843: 282, 844: 44, 845: 526, 846: 764, 847: 764, 848: 526, 849: 282, 850: 44, 851: 282, 852: 44, 853: 44, 854: 282, 855: 44, 856: 282, 857: 526, 858: 764, 859: 526, 860: 764, 861: 282, 862: 44, 863: 156, 864: 394, 865: 554, 866: 792, 867: 764, 868: 526, 869: 156, 870: 394, 871: 44, 872: 282, 873: 44, 874: 282, 875: 44, 876: 282, 877: 44, 878: 282, 879: 526, 880: 764, 881: 44, 882: 282, 883: 526, 884: 764, 885: 58, 886: 296, 887: 44, 888: 282, 889: 526, 890: 764, 891: 44, 892: 282, 893: 764, 894: 526, 895: 764, 896: 526, 897: 526, 898: 764, 899: 526, 900: 764, 901: 764, 902: 526, 903: 764, 904: 526, 905: 764, 906: 526, 907: 526, 908: 764, 909: 526, 910: 764, 911: 44, 912: 282, 913: 442, 914: 680, 915: 156, 916: 394}
Number of labels used: 28
Total time: 344.84 sec
Memory: 677.11 MB
=============================================

========== NEW INCUMBENT SOLUTION ==========
{1: 16, 2: 254, 3: 16, 4: 254, 5: 394, 6: 156, 7: 254, 8: 16, 9: 156, 10: 394, 11: 526, 12: 764, 13: 680, 14: 442, 15: 16, 16: 254, 17: 526, 18: 764, 19: 554, 20: 792, 21: 114, 22: 352, 23: 296, 24: 58, 25: 86, 26: 324, 27: 156, 28: 394, 29: 792, 30: 554, 31: 156, 32: 394, 33: 498, 34: 736, 35: 736, 36: 498, 37: 156, 38: 394, 39: 114, 40: 352, 41: 778, 42: 540, 43: 86, 44: 324, 45: 44, 46: 282, 47: 442, 48: 680, 49: 764, 50: 526, 51: 736, 52: 498, 53: 470, 54: 708, 55: 792, 56: 554, 57: 778, 58: 540, 59: 778, 60: 540, 61: 16, 62: 254, 63: 114, 64: 352, 65: 736, 66: 498, 67: 708, 68: 470, 69: 736, 70: 498, 71: 470, 72: 708, 73: 708, 74: 470, 75: 736, 76: 498, 77: 526, 78: 764, 79: 142, 80: 380, 81: 442, 82: 680, 83: 394, 84: 156, 85: 470, 86: 708, 87: 736, 88: 498, 89: 470, 90: 708, 91: 442, 92: 680, 93: 778, 94: 540, 95: 526, 96: 764, 97: 540, 98: 778, 99: 114, 100: 352, 101: 498, 102: 736, 103: 554, 104: 792, 105: 72, 106: 310, 107: 156, 108: 394, 109: 554, 110: 792, 111: 380, 112: 142, 113: 156, 114: 394, 115: 156, 116: 394, 117: 16, 118: 254, 119: 156, 120: 394, 121: 540, 122: 778, 123: 394, 124: 156, 125: 470, 126: 708, 127: 764, 128: 526, 129: 498, 130: 736, 131: 470, 132: 708, 133: 680, 134: 442, 135: 540, 136: 778, 137: 708, 138: 470, 139: 764, 140: 526, 141: 44, 142: 282, 143: 352, 144: 114, 145: 680, 146: 442, 147: 708, 148: 470, 149: 736, 150: 498, 151: 470, 152: 708, 153: 156, 154: 394, 155: 554, 156: 792, 157: 86, 158: 324, 159: 526, 160: 764, 161: 778, 162: 540, 163: 736, 164: 498, 165: 554, 166: 792, 167: 736, 168: 498, 169: 114, 170: 352, 171: 142, 172: 380, 173: 540, 174: 778, 175: 736, 176: 498, 177: 72, 178: 310, 179: 708, 180: 470, 181: 554, 182: 792, 183: 778, 184: 540, 185: 792, 186: 554, 187: 498, 188: 736, 189: 778, 190: 540, 191: 86, 192: 324, 193: 142, 194: 380, 195: 736, 196: 498, 197: 498, 198: 736, 199: 324, 200: 86, 201: 114, 202: 352, 203: 708, 204: 470, 205: 498, 206: 736, 207: 16, 208: 254, 209: 498, 210: 736, 211: 142, 212: 380, 213: 792, 214: 554, 215: 498, 216: 736, 217: 778, 218: 540, 219: 708, 220: 470, 221: 778, 222: 540, 223: 764, 224: 526, 225: 554, 226: 792, 227: 540, 228: 778, 229: 792, 230: 554, 231: 540, 232: 778, 233: 554, 234: 792, 235: 778, 236: 540, 237: 498, 238: 736, 239: 778, 240: 540, 241: 708, 242: 470, 243: 764, 244: 526, 245: 736, 246: 498, 247: 764, 248: 526, 249: 470, 250: 708, 251: 498, 252: 736, 253: 554, 254: 792, 255: 470, 256: 708, 257: 156, 258: 394, 259: 540, 260: 778, 261: 554, 262: 792, 263: 540, 264: 778, 265: 554, 266: 792, 267: 498, 268: 736, 269: 470, 270: 708, 271: 540, 272: 778, 273: 736, 274: 498, 275: 442, 276: 680, 277: 442, 278: 680, 279: 156, 280: 394, 281: 470, 282: 708, 283: 708, 284: 470, 285: 778, 286: 540, 287: 792, 288: 554, 289: 254, 290: 16, 291: 736, 292: 498, 293: 470, 294: 708, 295: 470, 296: 708, 297: 470, 298: 708, 299: 708, 300: 470, 301: 498, 302: 736, 303: 778, 304: 540, 305: 540, 306: 778, 307: 470, 308: 708, 309: 554, 310: 792, 311: 736, 312: 498, 313: 540, 314: 778, 315: 442, 316: 680, 317: 554, 318: 792, 319: 736, 320: 498, 321: 554, 322: 792, 323: 254, 324: 16, 325: 310, 326: 72, 327: 352, 328: 114, 329: 540, 330: 778, 331: 792, 332: 554, 333: 86, 334: 324, 335: 554, 336: 792, 337: 554, 338: 792, 339: 470, 340: 708, 341: 114, 342: 352, 343: 16, 344: 254, 345: 352, 346: 114, 347: 708, 348: 470, 349: 680, 350: 442, 351: 310, 352: 72, 353: 156, 354: 394, 355: 526, 356: 764, 357: 554, 358: 792, 359: 736, 360: 498, 361: 156, 362: 394, 363: 352, 364: 114, 365: 498, 366: 736, 367: 442, 368: 680, 369: 442, 370: 680, 371: 470, 372: 708, 373: 142, 374: 380, 375: 156, 376: 394, 377: 764, 378: 526, 379: 352, 380: 114, 381: 470, 382: 708, 383: 442, 384: 680, 385: 708, 386: 470, 387: 498, 388: 736, 389: 394, 390: 156, 391: 470, 392: 708, 393: 792, 394: 554, 395: 526, 396: 764, 397: 156, 398: 394, 399: 554, 400: 792, 401: 554, 402: 792, 403: 498, 404: 736, 405: 380, 406: 142, 407: 736, 408: 498, 409: 72, 410: 310, 411: 442, 412: 680, 413: 708, 414: 470, 415: 792, 416: 554, 417: 114, 418: 352, 419: 764, 420: 526, 421: 58, 422: 296, 423: 554, 424: 792, 425: 526, 426: 764, 427: 142, 428: 380, 429: 554, 430: 792, 431: 554, 432: 792, 433: 58, 434: 296, 435: 554, 436: 792, 437: 554, 438: 792, 439: 470, 440: 708, 441: 540, 442: 778, 443: 792, 444: 554, 445: 680, 446: 442, 447: 156, 448: 394, 449: 708, 450: 470, 451: 470, 452: 708, 453: 442, 454: 680, 455: 554, 456: 792, 457: 470, 458: 708, 459: 526, 460: 764, 461: 526, 462: 764, 463: 764, 464: 526, 465: 470, 466: 708, 467: 764, 468: 526, 469: 792, 470: 554, 471: 142, 472: 380, 473: 680, 474: 442, 475: 764, 476: 526, 477: 470, 478: 708, 479: 526, 480: 764, 481: 708, 482: 470, 483: 792, 484: 554, 485: 792, 486: 554, 487: 526, 488: 764, 489: 470, 490: 708, 491: 470, 492: 708, 493: 792, 494: 554, 495: 470, 496: 708, 497: 394, 498: 156, 499: 44, 500: 282, 501: 708, 502: 470, 503: 470, 504: 708, 505: 708, 506: 470, 507: 708, 508: 470, 509: 554, 510: 792, 511: 470, 512: 708, 513: 708, 514: 470, 515: 470, 516: 708, 517: 554, 518: 792, 519: 526, 520: 764, 521: 792, 522: 554, 523: 792, 524: 554, 525: 470, 526: 708, 527: 470, 528: 708, 529: 708, 530: 470, 531: 470, 532: 708, 533: 554, 534: 792, 535: 554, 536: 792, 537: 442, 538: 680, 539: 470, 540: 708, 541: 72, 542: 310, 543: 526, 544: 764, 545: 792, 546: 554, 547: 142, 548: 380, 549: 736, 550: 498, 551: 554, 552: 792, 553: 296, 554: 58, 555: 554, 556: 792, 557: 58, 558: 296, 559: 282, 560: 44, 561: 526, 562: 764, 563: 470, 564: 708, 565: 554, 566: 792, 567: 58, 568: 296, 569: 442, 570: 680, 571: 156, 572: 394, 573: 526, 574: 764, 575: 142, 576: 380, 577: 156, 578: 394, 579: 142, 580: 380, 581: 16, 582: 254, 583: 554, 584: 792, 585: 442, 586: 680, 587: 554, 588: 792, 589: 792, 590: 554, 591: 442, 592: 680, 593: 58, 594: 296, 595: 44, 596: 282, 597: 736, 598: 498, 599: 792, 600: 554, 601: 526, 602: 764, 603: 554, 604: 792, 605: 394, 606: 156, 607: 442, 608: 680, 609: 554, 610: 792, 611: 764, 612: 526, 613: 792, 614: 554, 615: 282, 616: 44, 617: 526, 618: 764, 619: 792, 620: 554, 621: 554, 622: 792, 623: 142, 624: 380, 625: 526, 626: 764, 627: 554, 628: 792, 629: 764, 630: 526, 631: 296, 632: 58, 633: 554, 634: 792, 635: 554, 636: 792, 637: 526, 638: 764, 639: 526, 640: 764, 641: 394, 642: 156, 643: 680, 644: 442, 645: 764, 646: 526, 647: 16, 648: 254, 649: 680, 650: 442, 651: 526, 652: 764, 653: 142, 654: 380, 655: 792, 656: 554, 657: 58, 658: 296, 659: 394, 660: 156, 661: 680, 662: 442, 663: 394, 664: 156, 665: 442, 666: 680, 667: 680, 668: 442, 669: 764, 670: 526, 671: 142, 672: 380, 673: 442, 674: 680, 675: 526, 676: 764, 677: 680, 678: 442, 679: 680, 680: 442, 681: 156, 682: 394, 683: 282, 684: 44, 685: 142, 686: 380, 687: 442, 688: 680, 689: 380, 690: 142, 691: 526, 692: 764, 693: 394, 694: 156, 695: 394, 696: 156, 697: 254, 698: 16, 699: 442, 700: 680, 701: 142, 702: 380, 703: 44, 704: 282, 705: 142, 706: 380, 707: 142, 708: 380, 709: 156, 710: 394, 711: 764, 712: 526, 713: 442, 714: 680, 715: 282, 716: 44, 717: 442, 718: 680, 719: 156, 720: 394, 721: 16, 722: 254, 723: 680, 724: 442, 725: 442, 726: 680, 727: 680, 728: 442, 729: 142, 730: 380, 731: 764, 732: 526, 733: 156, 734: 394, 735: 442, 736: 680, 737: 394, 738: 156, 739: 142, 740: 380, 741: 442, 742: 680, 743: 16, 744: 254, 745: 296, 746: 58, 747: 58, 748: 296, 749: 44, 750: 282, 751: 156, 752: 394, 753: 764, 754: 526, 755: 680, 756: 442, 757: 764, 758: 526, 759: 764, 760: 526, 761: 680, 762: 442, 763: 526, 764: 764, 765: 142, 766: 380, 767: 470, 768: 708, 769: 526, 770: 764, 771: 380, 772: 142, 773: 540, 774: 778, 775: 680, 776: 442, 777: 680, 778: 442, 779: 142, 780: 380, 781: 380, 782: 142, 783: 680, 784: 442, 785: 282, 786: 44, 787: 442, 788: 680, 789: 680, 790: 442, 791: 44, 792: 282, 793: 526, 794: 764, 795: 526, 796: 764, 797: 680, 798: 442, 799: 792, 800: 554, 801: 680, 802: 442, 803: 156, 804: 394, 805: 526, 806: 764, 807: 156, 808: 394, 809: 442, 810: 680, 811: 442, 812: 680, 813: 442, 814: 680, 815: 442, 816: 680, 817: 526, 818: 764, 819: 526, 820: 764, 821: 442, 822: 680, 823: 442, 824: 680, 825: 526, 826: 764, 827: 442, 828: 680, 829: 764, 830: 526, 831: 526, 832: 764, 833: 764, 834: 526, 835: 380, 836: 142, 837: 442, 838: 680, 839: 680, 840: 442, 841: 526, 842: 764, 843: 282, 844: 44, 845: 526, 846: 764, 847: 764, 848: 526, 849: 282, 850: 44, 851: 282, 852: 44, 853: 44, 854: 282, 855: 44, 856: 282, 857: 526, 858: 764, 859: 526, 860: 764, 861: 282, 862: 44, 863: 156, 864: 394, 865: 554, 866: 792, 867: 764, 868: 526, 869: 156, 870: 394, 871: 44, 872: 282, 873: 44, 874: 282, 875: 44, 876: 282, 877: 44, 878: 282, 879: 526, 880: 764, 881: 44, 882: 282, 883: 526, 884: 764, 885: 58, 886: 296, 887: 44, 888: 282, 889: 526, 890: 764, 891: 44, 892: 282, 893: 764, 894: 526, 895: 764, 896: 526, 897: 526, 898: 764, 899: 526, 900: 764, 901: 764, 902: 526, 903: 764, 904: 526, 905: 764, 906: 526, 907: 526, 908: 764, 909: 526, 910: 764, 911: 44, 912: 282, 913: 442, 914: 680, 915: 156, 916: 394}
Number of labels used: 28
Total time: 344.85 sec
Memory: 677.73 MB
=============================================
[runlim] sample:		772.0 time, 350.7 real, 799.0 MB
[runlim] sample:		792.0 time, 360.7 real, 802.2 MB
[runlim] sample:		812.0 time, 370.7 real, 812.3 MB
[runlim] sample:		832.0 time, 380.7 real, 812.8 MB
[runlim] sample:		852.0 time, 390.7 real, 821.0 MB
[runlim] sample:		872.0 time, 400.7 real, 822.3 MB
[runlim] sample:		892.0 time, 410.7 real, 822.7 MB
[runlim] sample:		911.9 time, 420.7 real, 822.8 MB
[runlim] sample:		931.9 time, 430.7 real, 822.9 MB
[runlim] sample:		951.9 time, 440.7 real, 823.0 MB
[runlim] sample:		971.9 time, 450.7 real, 823.3 MB
[runlim] sample:		991.9 time, 460.7 real, 823.4 MB
[runlim] sample:		1011.9 time, 470.7 real, 823.4 MB
[runlim] sample:		1031.9 time, 480.7 real, 823.7 MB
[runlim] sample:		1051.9 time, 490.7 real, 823.7 MB
[runlim] sample:		1071.9 time, 500.7 real, 823.7 MB
[runlim] sample:		1091.8 time, 510.7 real, 823.8 MB
[runlim] sample:		1111.8 time, 520.7 real, 823.8 MB
[runlim] sample:		1131.8 time, 530.7 real, 823.8 MB
[runlim] sample:		1151.8 time, 540.7 real, 823.8 MB
[runlim] sample:		1171.8 time, 550.7 real, 823.9 MB
[runlim] sample:		1191.8 time, 560.7 real, 823.9 MB
[runlim] sample:		1211.8 time, 570.7 real, 823.9 MB
[runlim] sample:		1231.8 time, 580.7 real, 824.0 MB
[runlim] sample:		1251.8 time, 590.7 real, 824.0 MB
[runlim] end:			Tue Jan 20 19:56:37 2026
[runlim] status:		out of time
[runlim] result:		2
[runlim] children:		0
[runlim] real:			600.06 seconds
[runlim] time:			1270.37 seconds
[runlim] space:			1924.4 MB
[runlim] samples:		5993
